%mem=5120mb
%NProcShared=16
# b3lyp/genecp opt(MaxC=80) scfcyc=256

Coal_kick_v2_Trial # 57 - recalc 0

0 1
C    -1.105811  -1.710258  -0.507452
H    -0.381723  -1.797423  -1.335283
O    -2.185126  -2.257098  -0.520344
O    -0.690603  -0.949552  0.515762
O    2.991593  -0.229216  1.545478
H    2.452319  -0.944970  1.909535
H    2.336125  0.464596  1.336576
O    3.231884  -0.222466  -1.230112
H    3.413157  -0.417685  -0.277620
H    4.080640  0.012211  -1.638471
O    -3.023700  0.762175  0.677779
H    -2.367018  0.150328  1.064806
H    -3.623341  0.182307  0.177390
O    -1.078984  2.672503  -0.453195
H    -2.042511  2.516762  -0.410582
H    -0.942609  3.442966  -1.029329
O    0.980633  0.845812  -0.043484
H    0.210859  1.424123  -0.257201
H    1.587657  0.711895  -0.809297
H    0.105730  -0.460820  0.379119

C O 0
6-31+G*
****
H 0
3-21g
****



