%mem=5120mb
%NProcShared=16
# b3lyp/genecp opt(MaxC=80) scfcyc=256

Coal_kick_v2_Trial # 54 - recalc 1

0 1
C    -2.950768  0.371819  -0.039448
H    -3.101772  1.373972  -0.486264
O    -3.850223  -0.297767  0.406587
O    -1.669590  -0.024072  -0.044183
O    2.413013  -0.794941  0.991353
H    1.545272  -1.303259  0.938270
H    3.013542  -1.307556  1.557832
O    1.697827  1.898657  1.195542
H    2.070623  0.990206  1.298194
H    2.388643  2.533236  1.443784
O    1.942562  -0.578327  -1.752287
H    2.412733  -0.647915  -0.888696
H    2.615473  -0.600334  -2.452518
O    0.151398  -2.093322  0.425303
H    -0.645663  -1.514712  0.467364
H    0.301827  -2.228367  -0.528653
O    0.153861  1.524651  -1.075840
H    0.751731  0.877858  -1.517600
H    0.672247  1.861342  -0.304944
H    -1.030824  0.655586  -0.461892

C O 0
6-31+G*
****
H 0
3-21g
****



