%mem=5120mb
%NProcShared=16
# b3lyp/genecp opt(MaxC=80) scfcyc=256

Coal_kick_v2_Trial # 50 - recalc 1

0 1
C    2.280738  1.082066  -0.651628
H    2.210741  2.007598  -1.255777
O    1.099394  0.786831  -0.080652
O    3.289399  0.421648  -0.535685
O    -1.141408  2.250314  0.953734
H    -0.974331  2.947430  1.607577
H    -0.276562  1.869283  0.687750
O    -0.791112  -2.769157  0.252071
H    -1.079154  -2.099389  -0.433402
H    -0.742627  -3.630748  -0.191249
O    -1.394299  -0.755789  -1.442176
H    -2.155544  -0.221994  -1.088424
H    -0.624609  -0.159576  -1.407207
O    -3.254914  0.812557  -0.167630
H    -3.750792  0.317777  0.503061
H    -2.629961  1.397579  0.318836
O    1.251071  -1.377157  1.333780
H    2.128970  -1.769891  1.182637
H    0.568507  -2.026719  0.998619
H    1.175892  -0.077712  0.479814

C O 0
6-31+G*
****
H 0
3-21g
****



