%mem=5120mb
%NProcShared=16
# b3lyp/genecp opt(MaxC=80) scfcyc=256

Coal_kick_v2_Trial # 56

0 1
C    2.291814   -2.356344   -1.351987
H    1.195092   -2.362162   -1.390523
O    2.952558   -2.646755   -0.394493
O    2.783735   -1.972986   -2.544995
O    3.121211   -0.654636    0.899548
H    3.960758   -0.821305    1.338776
H    2.695685    0.029568    1.425221
O    5.706440   -1.790902    0.767103
H    5.778099   -2.641394    1.211026
H    6.545616   -1.675611    0.310999
O    3.162395   -2.469244    1.893593
H    3.503177   -3.324798    2.171866
H    3.075446   -1.959110    2.704607
O    2.994020   -0.056226    3.395195
H    3.383913   -0.502601    4.153002
H    3.647134    0.597197    3.126831
O    4.604811   -0.079949   -1.359662
H    4.372965    0.713064   -1.885106
H    4.526661    0.138926   -0.404194
H    5.514915   -0.332765   -1.527637

C O 0
6-31+G*
****
H 0
3-21g
****



